(set-logic QF_S)
(declare-fun var0 () Bool)
(declare-fun var1 () String)
(declare-fun var2 () String)
(declare-fun var3 () String)
(declare-fun var4 () String)
(declare-fun var5 () Int)
(declare-fun var6 () Int)
(declare-fun var7 () Int)
(declare-fun var8 () Int)
(assert (not var0))
(assert (>= (str.len var1) (str.to.int var2)))
(assert (str.in.re (str.replace var3 var4 "z@&C_NA:") (re.+ re.allchar)))
(assert (str.contains (str.replace (str.substr var4 var5 var6) (str.replace var2 var3 var4) (str.replace var2 "4-(Uw\\-Nwh" var4)) (str.substr (str.substr var3 var7 var8) (str.to.int var3) (str.indexof var1 var2 var6))))
(check-sat)